Mo-Mo-C-O-O
   1.00000000000000
     3.1631210956839011    0.0000000000000003    0.0000000000000000
    -1.5815605478419505    2.7393432240816700   -0.0000000000000000
     0.0000000000000001   -0.0000000000000001    6.0983303037927232
   C    Mo   O
     1     2     2
Direct
 -0.0000000000000000 -0.0000000000000000  0.3010806083999995
  0.3333329854322145  0.6666669831836742  0.1226780453401731
  0.6666669847440474  0.3333329859851446  0.4794831174598215
  0.3333329854322145  0.6666669831836742  0.6438650637521272
  0.6666669847440474  0.3333329859851446 -0.0417039005521330