PREC = Accurate
EDIFF = 1e-6
ISMEAR = 0; SIGMA = 0.1
POTIM = 0.020
ISTART = 0
LCHARG = FALSE
LWAVE = FALSE

RWIGS = 0.77 1.30 0.73

NCORE = 64
NPAR = 4
KPAR = 4